9,3	0,0	12,5	12,8	0,0	0,0	0,0	0,0	0,0	10,3
18,7	10,3	0,0	12,4	11,3	0,0	0,0	15,9	0,0	0,0
0,0	0,0	11,4	0,0	7,4	16,2	0,0	0,0	19,2	0,0
18,4	0,0	19,5	0,0	0,0	0,0	9,9	0,0	0,0	0,0
0,0	7,3	0,0	13,0	17,0	0,0	0,0	12,2	0,0	0,0
0,0	8,1	14,5	0,0	11,8	16,7	0,0	0,0	15,0	0,0
0,0	18,9	0,0	10,4	0,0	0,0	18,6	0,0	0,0	15,9
8,4	0,0	12,4	0,0	0,0	0,0	0,0	0,0	0,0	18,7
0,0	7,3	0,0	11,6	18,8	0,0	0,0	17,9	0,0	0,0
0,0	0,0	15,4	0,0	0,0	5,5	19,1	0,0	0,0	9,5
									
4,3	4,1	3,5	2,6	3,2	4,9	4,9	2,8	3,2	4,7
